p edge 335 602
e 1 3 1
e 1 2 1
e 3 4 1
e 4 5 1
e 5 7 1
e 5 6 1
e 6 8 1
e 7 13 1
e 7 8 1
e 8 14 1
e 8 9 1
e 9 15 1
e 10 18 1
e 10 11 1
e 11 19 1
e 12 20 1
e 13 28 1
e 13 14 1
e 14 29 1
e 14 15 1
e 15 30 1
e 15 16 1
e 16 31 1
e 16 17 1
e 17 32 1
e 17 18 1
e 18 33 1
e 18 19 1
e 19 34 1
e 20 35 1
e 20 21 1
e 21 36 1
e 21 22 1
e 22 37 1
e 22 23 1
e 23 38 1
e 23 24 1
e 24 39 1
e 24 25 1
e 25 40 1
e 25 26 1
e 26 41 1
e 26 27 1
e 27 42 1
e 27 28 1
e 28 43 1
e 28 29 1
e 29 44 1
e 29 30 1
e 30 45 1
e 30 31 1
e 31 46 1
e 31 32 1
e 32 47 1
e 32 33 1
e 33 34 1
e 35 48 1
e 35 36 1
e 36 49 1
e 36 37 1
e 37 50 1
e 37 38 1
e 38 51 1
e 38 39 1
e 39 52 1
e 39 40 1
e 40 53 1
e 40 41 1
e 41 54 1
e 41 42 1
e 42 55 1
e 42 43 1
e 43 56 1
e 43 44 1
e 44 57 1
e 44 45 1
e 45 58 1
e 45 46 1
e 46 59 1
e 46 47 1
e 47 60 1
e 48 61 1
e 48 49 1
e 49 62 1
e 49 50 1
e 50 63 1
e 50 51 1
e 51 64 1
e 51 52 1
e 52 65 1
e 52 53 1
e 53 66 1
e 53 54 1
e 54 67 1
e 54 55 1
e 55 68 1
e 55 56 1
e 56 69 1
e 56 57 1
e 57 70 1
e 57 58 1
e 58 71 1
e 58 59 1
e 59 72 1
e 59 60 1
e 60 73 1
e 61 62 1
e 62 74 1
e 62 63 1
e 63 75 1
e 63 64 1
e 64 76 1
e 64 65 1
e 65 77 1
e 65 66 1
e 66 78 1
e 66 67 1
e 67 79 1
e 67 68 1
e 68 80 1
e 68 69 1
e 69 81 1
e 69 70 1
e 70 82 1
e 70 71 1
e 71 83 1
e 71 72 1
e 72 84 1
e 72 73 1
e 73 85 1
e 74 86 1
e 74 75 1
e 75 87 1
e 75 76 1
e 76 88 1
e 76 77 1
e 77 89 1
e 77 78 1
e 78 90 1
e 78 79 1
e 79 91 1
e 79 80 1
e 80 92 1
e 80 81 1
e 81 93 1
e 81 82 1
e 82 94 1
e 82 83 1
e 83 95 1
e 83 84 1
e 84 96 1
e 84 85 1
e 85 97 1
e 86 104 1
e 86 87 1
e 87 105 1
e 87 88 1
e 88 106 1
e 88 89 1
e 89 107 1
e 89 90 1
e 90 108 1
e 90 91 1
e 91 109 1
e 91 92 1
e 92 110 1
e 92 93 1
e 93 111 1
e 93 94 1
e 94 112 1
e 94 95 1
e 95 113 1
e 95 96 1
e 96 114 1
e 96 97 1
e 97 115 1
e 97 98 1
e 98 116 1
e 99 100 1
e 100 117 1
e 100 101 1
e 101 118 1
e 101 102 1
e 102 119 1
e 102 103 1
e 103 120 1
e 103 104 1
e 104 121 1
e 104 105 1
e 105 122 1
e 105 106 1
e 106 123 1
e 106 107 1
e 107 124 1
e 107 108 1
e 108 125 1
e 108 109 1
e 109 126 1
e 109 110 1
e 110 127 1
e 110 111 1
e 111 128 1
e 111 112 1
e 112 129 1
e 112 113 1
e 113 130 1
e 113 114 1
e 114 131 1
e 114 115 1
e 115 132 1
e 115 116 1
e 116 133 1
e 117 134 1
e 117 118 1
e 118 135 1
e 118 119 1
e 119 136 1
e 119 120 1
e 120 137 1
e 120 121 1
e 121 138 1
e 121 122 1
e 122 139 1
e 122 123 1
e 123 140 1
e 123 124 1
e 124 141 1
e 124 125 1
e 125 142 1
e 125 126 1
e 126 143 1
e 126 127 1
e 127 144 1
e 127 128 1
e 128 145 1
e 128 129 1
e 129 146 1
e 129 130 1
e 130 147 1
e 130 131 1
e 131 148 1
e 131 132 1
e 132 149 1
e 132 133 1
e 133 150 1
e 134 153 1
e 134 135 1
e 135 154 1
e 135 136 1
e 136 155 1
e 136 137 1
e 137 156 1
e 137 138 1
e 138 157 1
e 138 139 1
e 139 158 1
e 139 140 1
e 140 159 1
e 140 141 1
e 141 160 1
e 141 142 1
e 142 161 1
e 142 143 1
e 143 162 1
e 143 144 1
e 144 163 1
e 144 145 1
e 145 164 1
e 145 146 1
e 146 165 1
e 146 147 1
e 147 166 1
e 147 148 1
e 148 167 1
e 148 149 1
e 149 168 1
e 149 150 1
e 150 169 1
e 150 151 1
e 151 170 1
e 151 152 1
e 152 171 1
e 153 172 1
e 153 154 1
e 154 173 1
e 154 155 1
e 155 174 1
e 155 156 1
e 156 175 1
e 156 157 1
e 157 176 1
e 157 158 1
e 158 177 1
e 158 159 1
e 159 178 1
e 159 160 1
e 160 179 1
e 160 161 1
e 161 180 1
e 161 162 1
e 162 181 1
e 162 163 1
e 163 182 1
e 163 164 1
e 164 183 1
e 164 165 1
e 165 184 1
e 165 166 1
e 166 185 1
e 166 167 1
e 167 186 1
e 167 168 1
e 168 187 1
e 168 169 1
e 169 188 1
e 169 170 1
e 170 171 1
e 172 173 1
e 173 174 1
e 174 189 1
e 174 175 1
e 175 190 1
e 175 176 1
e 176 191 1
e 176 177 1
e 177 192 1
e 177 178 1
e 178 193 1
e 178 179 1
e 179 194 1
e 179 180 1
e 180 181 1
e 181 182 1
e 182 183 1
e 183 184 1
e 184 195 1
e 184 185 1
e 185 196 1
e 185 186 1
e 186 197 1
e 186 187 1
e 187 198 1
e 187 188 1
e 188 199 1
e 189 190 1
e 190 191 1
e 191 200 1
e 191 192 1
e 192 201 1
e 192 193 1
e 193 202 1
e 193 194 1
e 194 203 1
e 195 204 1
e 195 196 1
e 196 205 1
e 196 197 1
e 197 206 1
e 197 198 1
e 198 207 1
e 198 199 1
e 199 208 1
e 200 209 1
e 200 201 1
e 201 210 1
e 201 202 1
e 202 211 1
e 202 203 1
e 203 212 1
e 204 213 1
e 204 205 1
e 205 214 1
e 205 206 1
e 206 215 1
e 206 207 1
e 207 216 1
e 207 208 1
e 208 217 1
e 209 210 1
e 210 219 1
e 210 211 1
e 211 220 1
e 211 212 1
e 212 221 1
e 213 223 1
e 213 214 1
e 214 224 1
e 214 215 1
e 215 225 1
e 215 216 1
e 216 226 1
e 216 217 1
e 217 227 1
e 217 218 1
e 218 228 1
e 219 229 1
e 219 220 1
e 220 230 1
e 220 221 1
e 221 231 1
e 221 222 1
e 222 232 1
e 223 236 1
e 223 224 1
e 224 237 1
e 224 225 1
e 225 238 1
e 225 226 1
e 226 239 1
e 226 227 1
e 227 240 1
e 227 228 1
e 228 241 1
e 229 242 1
e 229 230 1
e 230 243 1
e 230 231 1
e 231 244 1
e 231 232 1
e 232 245 1
e 232 233 1
e 233 246 1
e 233 234 1
e 234 247 1
e 234 235 1
e 235 248 1
e 235 236 1
e 236 249 1
e 236 237 1
e 237 250 1
e 237 238 1
e 238 251 1
e 238 239 1
e 239 252 1
e 239 240 1
e 240 253 1
e 240 241 1
e 241 254 1
e 242 255 1
e 242 243 1
e 243 256 1
e 243 244 1
e 244 257 1
e 244 245 1
e 245 258 1
e 245 246 1
e 246 259 1
e 246 247 1
e 247 260 1
e 247 248 1
e 248 261 1
e 248 249 1
e 249 262 1
e 249 250 1
e 250 263 1
e 250 251 1
e 251 264 1
e 251 252 1
e 252 265 1
e 252 253 1
e 253 266 1
e 253 254 1
e 254 267 1
e 255 268 1
e 255 256 1
e 256 269 1
e 256 257 1
e 257 270 1
e 257 258 1
e 258 271 1
e 258 259 1
e 259 272 1
e 259 260 1
e 260 273 1
e 260 261 1
e 261 274 1
e 261 262 1
e 262 275 1
e 262 263 1
e 263 276 1
e 263 264 1
e 264 277 1
e 264 265 1
e 265 278 1
e 265 266 1
e 266 279 1
e 266 267 1
e 267 280 1
e 268 281 1
e 268 269 1
e 269 282 1
e 269 270 1
e 270 283 1
e 270 271 1
e 271 284 1
e 271 272 1
e 272 285 1
e 272 273 1
e 273 286 1
e 273 274 1
e 274 287 1
e 274 275 1
e 275 288 1
e 275 276 1
e 276 289 1
e 276 277 1
e 277 290 1
e 277 278 1
e 278 291 1
e 278 279 1
e 279 292 1
e 279 280 1
e 280 293 1
e 281 295 1
e 281 282 1
e 282 296 1
e 282 283 1
e 283 297 1
e 283 284 1
e 284 298 1
e 284 285 1
e 285 299 1
e 285 286 1
e 286 300 1
e 286 287 1
e 287 301 1
e 287 288 1
e 288 302 1
e 288 289 1
e 289 303 1
e 289 290 1
e 290 304 1
e 290 291 1
e 291 305 1
e 291 292 1
e 292 306 1
e 292 293 1
e 294 307 1
e 294 295 1
e 295 308 1
e 295 296 1
e 296 309 1
e 296 297 1
e 297 310 1
e 297 298 1
e 298 311 1
e 298 299 1
e 299 312 1
e 299 300 1
e 300 313 1
e 300 301 1
e 301 314 1
e 301 302 1
e 302 315 1
e 302 303 1
e 303 316 1
e 303 304 1
e 304 317 1
e 304 305 1
e 305 318 1
e 305 306 1
e 306 319 1
e 307 308 1
e 308 320 1
e 308 309 1
e 309 321 1
e 309 310 1
e 310 322 1
e 310 311 1
e 311 323 1
e 311 312 1
e 312 324 1
e 312 313 1
e 313 325 1
e 313 314 1
e 314 326 1
e 314 315 1
e 315 327 1
e 315 316 1
e 316 328 1
e 316 317 1
e 317 329 1
e 317 318 1
e 318 330 1
e 318 319 1
e 319 331 1
e 320 321 1
e 321 333 1
e 321 322 1
e 322 323 1
e 323 324 1
e 324 325 1
e 325 326 1
e 326 327 1
e 327 328 1
e 328 329 1
e 329 330 1
e 330 331 1
e 331 334 1
e 331 332 1
e 332 335 1
e 334 335 1